proyfinal/src/viki/013/experimentInOfficeAgust.take6.output/cf134671-0ecf-48a7-808c-f6d6cd06e495.als.dat
{'cnf.clauses': '118081',
 'cnf.totvars': '69608',
 'conflict literals': '7',
 'conflicts': '6',
 'decisions': '663',
 'memused.mb': '15.96',
 'outcome': 'UNSAT',
 'propagations': '21117',
 'restarts': '1',
 'solver.msecs': 27,
 'task.msecs': 81}
