proyfinal/src/viki/013/experimentInOfficeAgust.take6.output/cf134671-0ecf-48a7-808c-f6d6cd06e495.als.out
Reading from standard input... Use '--help' for help.
============================[ Problem Statistics ]=============================
|                                                                             |
|  Number of variables:         69608                                         |
|  Number of clauses:          118081                                         |
|  Parse time:                   0.02 s                                       |
|                                                                             |
============================[ Search Statistics ]==============================
| Conflicts |          ORIGINAL         |          LEARNT          | Progress |
|           |    Vars  Clauses Literals |    Limit  Clauses Lit/Cl |          |
===============================================================================
===============================================================================
restarts              : 1
conflicts             : 6              (221 /sec)
decisions             : 663            (0.00 % random) (24428 /sec)
propagations          : 21117          (778048 /sec)
conflict literals     : 7              (0.00 % deleted)
Memory used           : 15.96 MB
CPU time              : 0.027141 s

UNSATISFIABLE
